Route #1: 60 16 8 46 47 63 2 58 31 59 37 23
Route #2: 56 52 61 24 32 13 41 10
Route #3: 18 22 12 28 43 38
Route #4: 11 57 17 1 27 14 30
Route #5: 33 45 29 25 6
Route #6: 35 26 21 7 44 39 36 40 50 49 55
Route #7: 15 53 3 62
Route #8: 51 19 20 48
Route #9: 42 54 5 4 34 9
Cost 1414
Time 0.120526
